NAME : 10_3_3_2_(31).dat
COMMENT : Henke, Speranza, Wäscher, 2015
TYPE : MCVRP
DIMENSION : 11
EDGE_WEIGHT_TYPE : DISTANCE_MATRIX
CAPACITY : 1000
VEHICLES : 2
PRODUCT TYPES : 3
COMPARTMENTS : 3
NODE_COORD_SECTION
1 50 50
2 5.44 20.22
3 83.35 97.86
4 76.9 14.43
5 14.49 93.62
6 15.12 45.65
7 22.29 70.25
8 81.19 50.11
9 13.99 23.58
10 54.03 49.48
11 2.53 55.57
DEMAND_SECTION
1 0 0 0
2 30 0 90
3 168 0 70
4 151 18 0
5 0 93 25
6 17 0 25
7 13 121 0
8 92 73 0
9 54 50 0
10 133 46 0
11 11 0 57
DEPOT_SECTION
1
EOF